50

95 45 318
88 3 495
88 38 392
86 21 452
85 27 314
84 28 416
84 6 380
82 37 373
81 19 460
79 38 586
72 21 322
71 3 307
69 22 207
69 28 219
69 35 545
68 5 580
68 1 459
65 17 203
61 15 576
61 5 469
61 27 562
61 28 329
60 17 371
58 28 431
57 24 250
57 7 235
53 9 333
44 13 192
43 5 329
36 5 566
29 14 356
29 3 502
27 3 209
23 7 188
23 11 424
22 9 293
21 2 558
17 8 242
14 7 382
14 4 261
14 6 265
13 1 524
12 4 583
11 3 501
11 5 482
6 1 462
5 3 202
3 1 85
3 2 279
2 1 300
